(set-info :source |printed by MathSAT|)
(declare-fun ldv_mutex () (_ BitVec 32))

*:
(assert (let ((.def_16536 (= ldv_mutex (_ bv1 32)))).def_16536))
(assert (let ((.def_16541 (= ldv_mutex (_ bv2 32)))).def_16541))

